outputs/case_156.model.txt
capital_adequacy_ratio = 40
net_worth_ratio_prev = 3/2
improvement_plan_done = False
improvement_plan_not_effective_flag = False
financial_or_business_deterioration_flag = False
net_worth_ratio = 3/2
improvement_plan_overdue = True
net_worth = 1000000
loss_or_net_worth_accelerated_deterioration_flag = False
improvement_plan_approved_flag = False
capital_insufficient = False
financial_or_business_deterioration = False
improvement_plan_approved = False
capital_significantly_insufficient = False
capital_adequate = False
capital_severely_insufficient = True
capital_level = 4
loss_or_net_worth_accelerated_deterioration = False
improvement_plan_completed = False
penalty = False
violation_internal_control_and_handling = False
internal_handling_established_and_executed = True
internal_control_established_and_executed = True
regulatory_action_required = True
capital_severe_insufficient_and_no_improvement = True
violation_internal_control = False
violation_internal_handling = False
improvement_plan_not_effective = False